
  26    0


   0  13 2 3 4 5 6 7 10 11 21 22 23 24 25 
   1   5 20 18 14 12 8 
   5   4 19 17 13 12 
   2   4 18 17 14 12 
   7   3 16 13 9 
   6   3 16 15 12 
   9   2 14 13 
   7   1 13 
   6   1 12 
   8   1 15 
   2   1 12 
   9   1 26
   4   1 26
   2   1 26
   7   1 26
   2   1 26
   3   1 26
   4   1 26
   5   1 26
   4   1 26
   8   1 26
   3   1 26
   1   1 26
   6   1 26
   5   1 26
   0   0 
